NAME : portcgen-18-30
COMMENT : portcgen N=18, seed=30
TYPE : TSP
DIMENSION : 18
EDGE_WEIGHT_TYPE : EUC_2D
NODE_COORD_SECTION
1 281233 294452
2 -445983 -422008
3 108241 -379909
4 -70374 -522759
5 497538 428815
6 339137 -138801
7 -220153 163162
8 207668 37697
9 98852 -38889
10 -1204 -394306
11 -15454 113798
12 -275773 684060
13 -85150 -163823
14 231264 179210
15 -47739 -266037
16 -377818 255804
17 -115840 -112953
18 -23187 286787
